p cnf 879 1567
c t pmc
c p show 1 2 3 4 5 6 7 8 9 10 11 12 13 14 15 16 17 18 19 20 21 22 23 24 25 26 27 28 29 30 31 32 33 34 35 36 37 38 39 40 41 42 43 44 45 46 47 48 49 50 51 52 53 54 55 56 57 58 59 60 61 62 63 64 65 66 67 68 69 70 71 72 73 74 75 76 77 78 79 80 81 82 83 84 85 86 87 88 89 90 91 92 93 94 95 96 97 98 99 100 0
1 101 0
-101 102 0
2 -101 103 0
-103 104 0
3 -103 105 0
-105 106 0
4 -105 107 0
-107 108 0
5 -107 109 0
-109 110 0
6 -109 111 0
-111 112 0
7 -111 113 0
-113 114 0
8 -113 115 0
-115 116 0
9 -115 0
2 102 0
3 -102 104 0
4 -104 106 0
5 -106 108 0
6 -108 110 0
7 -110 112 0
8 -112 114 0
9 -114 116 0
10 -116 0
-1 117 0
-117 118 0
-2 -117 119 0
-119 120 0
-3 -119 0
-2 118 0
-118 121 0
-3 -118 120 0
-120 122 0
-4 -120 0
-3 121 0
-121 123 0
-4 -121 122 0
-122 124 0
-5 -122 0
-4 123 0
-123 125 0
-5 -123 124 0
-124 126 0
-6 -124 0
-5 125 0
-125 127 0
-6 -125 126 0
-126 128 0
-7 -126 0
-6 127 0
-127 129 0
-7 -127 128 0
-128 130 0
-8 -128 0
-7 129 0
-129 131 0
-8 -129 130 0
-130 132 0
-9 -130 0
-8 131 0
-9 -131 132 0
-10 -132 0
11 133 0
-133 134 0
12 -133 135 0
-135 136 0
13 -135 137 0
-137 138 0
14 -137 139 0
-139 140 0
15 -139 141 0
-141 142 0
16 -141 0
12 134 0
-134 143 0
13 -134 136 0
-136 144 0
14 -136 138 0
-138 145 0
15 -138 140 0
-140 146 0
16 -140 142 0
-142 147 0
17 -142 0
13 143 0
-143 148 0
14 -143 144 0
-144 149 0
15 -144 145 0
-145 150 0
16 -145 146 0
-146 151 0
17 -146 147 0
-147 152 0
18 -147 0
14 148 0
-148 153 0
15 -148 149 0
-149 154 0
16 -149 150 0
-150 155 0
17 -150 151 0
-151 156 0
18 -151 152 0
-152 157 0
19 -152 0
15 153 0
16 -153 154 0
17 -154 155 0
18 -155 156 0
19 -156 157 0
20 -157 0
-11 158 0
-158 159 0
-12 -158 160 0
-160 161 0
-13 -160 162 0
-162 163 0
-14 -162 164 0
-164 165 0
-15 -164 166 0
-166 167 0
-16 -166 0
-12 159 0
-159 168 0
-13 -159 161 0
-161 169 0
-14 -161 163 0
-163 170 0
-15 -163 165 0
-165 171 0
-16 -165 167 0
-167 172 0
-17 -167 0
-13 168 0
-168 173 0
-14 -168 169 0
-169 174 0
-15 -169 170 0
-170 175 0
-16 -170 171 0
-171 176 0
-17 -171 172 0
-172 177 0
-18 -172 0
-14 173 0
-173 178 0
-15 -173 174 0
-174 179 0
-16 -174 175 0
-175 180 0
-17 -175 176 0
-176 181 0
-18 -176 177 0
-177 182 0
-19 -177 0
-15 178 0
-16 -178 179 0
-17 -179 180 0
-18 -180 181 0
-19 -181 182 0
-20 -182 0
21 183 0
-183 184 0
22 -183 185 0
-185 186 0
23 -185 187 0
-187 188 0
24 -187 189 0
-189 190 0
25 -189 191 0
-191 192 0
26 -191 193 0
-193 194 0
27 -193 0
22 184 0
-184 195 0
23 -184 186 0
-186 196 0
24 -186 188 0
-188 197 0
25 -188 190 0
-190 198 0
26 -190 192 0
-192 199 0
27 -192 194 0
-194 200 0
28 -194 0
23 195 0
-195 201 0
24 -195 196 0
-196 202 0
25 -196 197 0
-197 203 0
26 -197 198 0
-198 204 0
27 -198 199 0
-199 205 0
28 -199 200 0
-200 206 0
29 -200 0
24 201 0
25 -201 202 0
26 -202 203 0
27 -203 204 0
28 -204 205 0
29 -205 206 0
30 -206 0
-21 207 0
-207 208 0
-22 -207 209 0
-209 210 0
-23 -209 211 0
-211 212 0
-24 -211 213 0
-213 214 0
-25 -213 0
-22 208 0
-208 215 0
-23 -208 210 0
-210 216 0
-24 -210 212 0
-212 217 0
-25 -212 214 0
-214 218 0
-26 -214 0
-23 215 0
-215 219 0
-24 -215 216 0
-216 220 0
-25 -216 217 0
-217 221 0
-26 -217 218 0
-218 222 0
-27 -218 0
-24 219 0
-219 223 0
-25 -219 220 0
-220 224 0
-26 -220 221 0
-221 225 0
-27 -221 222 0
-222 226 0
-28 -222 0
-25 223 0
-223 227 0
-26 -223 224 0
-224 228 0
-27 -224 225 0
-225 229 0
-28 -225 226 0
-226 230 0
-29 -226 0
-26 227 0
-27 -227 228 0
-28 -228 229 0
-29 -229 230 0
-30 -230 0
31 231 0
-231 232 0
32 -231 233 0
-233 234 0
33 -233 235 0
-235 236 0
34 -235 0
32 232 0
-232 237 0
33 -232 234 0
-234 238 0
34 -234 236 0
-236 239 0
35 -236 0
33 237 0
-237 240 0
34 -237 238 0
-238 241 0
35 -238 239 0
-239 242 0
36 -239 0
34 240 0
-240 243 0
35 -240 241 0
-241 244 0
36 -241 242 0
-242 245 0
37 -242 0
35 243 0
-243 246 0
36 -243 244 0
-244 247 0
37 -244 245 0
-245 248 0
38 -245 0
36 246 0
-246 249 0
37 -246 247 0
-247 250 0
38 -247 248 0
-248 251 0
39 -248 0
37 249 0
38 -249 250 0
39 -250 251 0
40 -251 0
-31 252 0
-252 253 0
-32 -252 254 0
-254 255 0
-33 -254 256 0
-256 257 0
-34 -256 258 0
-258 259 0
-35 -258 260 0
-260 261 0
-36 -260 262 0
-262 263 0
-37 -262 264 0
-264 265 0
-38 -264 0
-32 253 0
-253 266 0
-33 -253 255 0
-255 267 0
-34 -255 257 0
-257 268 0
-35 -257 259 0
-259 269 0
-36 -259 261 0
-261 270 0
-37 -261 263 0
-263 271 0
-38 -263 265 0
-265 272 0
-39 -265 0
-33 266 0
-34 -266 267 0
-35 -267 268 0
-36 -268 269 0
-37 -269 270 0
-38 -270 271 0
-39 -271 272 0
-40 -272 0
41 273 0
-273 274 0
42 -273 275 0
-275 276 0
43 -275 277 0
-277 278 0
44 -277 279 0
-279 280 0
45 -279 281 0
-281 282 0
46 -281 283 0
-283 284 0
47 -283 285 0
-285 286 0
48 -285 287 0
-287 288 0
49 -287 0
42 274 0
43 -274 276 0
44 -276 278 0
45 -278 280 0
46 -280 282 0
47 -282 284 0
48 -284 286 0
49 -286 288 0
50 -288 0
-41 289 0
-289 290 0
-42 -289 291 0
-291 292 0
-43 -291 0
-42 290 0
-290 293 0
-43 -290 292 0
-292 294 0
-44 -292 0
-43 293 0
-293 295 0
-44 -293 294 0
-294 296 0
-45 -294 0
-44 295 0
-295 297 0
-45 -295 296 0
-296 298 0
-46 -296 0
-45 297 0
-297 299 0
-46 -297 298 0
-298 300 0
-47 -298 0
-46 299 0
-299 301 0
-47 -299 300 0
-300 302 0
-48 -300 0
-47 301 0
-301 303 0
-48 -301 302 0
-302 304 0
-49 -302 0
-48 303 0
-49 -303 304 0
-50 -304 0
51 305 0
-305 306 0
52 -305 307 0
-307 308 0
53 -307 309 0
-309 310 0
54 -309 311 0
-311 312 0
55 -311 313 0
-313 314 0
56 -313 315 0
-315 316 0
57 -315 0
52 306 0
-306 317 0
53 -306 308 0
-308 318 0
54 -308 310 0
-310 319 0
55 -310 312 0
-312 320 0
56 -312 314 0
-314 321 0
57 -314 316 0
-316 322 0
58 -316 0
53 317 0
-317 323 0
54 -317 318 0
-318 324 0
55 -318 319 0
-319 325 0
56 -319 320 0
-320 326 0
57 -320 321 0
-321 327 0
58 -321 322 0
-322 328 0
59 -322 0
54 323 0
55 -323 324 0
56 -324 325 0
57 -325 326 0
58 -326 327 0
59 -327 328 0
60 -328 0
-51 329 0
-329 330 0
-52 -329 331 0
-331 332 0
-53 -331 333 0
-333 334 0
-54 -333 335 0
-335 336 0
-55 -335 0
-52 330 0
-330 337 0
-53 -330 332 0
-332 338 0
-54 -332 334 0
-334 339 0
-55 -334 336 0
-336 340 0
-56 -336 0
-53 337 0
-337 341 0
-54 -337 338 0
-338 342 0
-55 -338 339 0
-339 343 0
-56 -339 340 0
-340 344 0
-57 -340 0
-54 341 0
-341 345 0
-55 -341 342 0
-342 346 0
-56 -342 343 0
-343 347 0
-57 -343 344 0
-344 348 0
-58 -344 0
-55 345 0
-345 349 0
-56 -345 346 0
-346 350 0
-57 -346 347 0
-347 351 0
-58 -347 348 0
-348 352 0
-59 -348 0
-56 349 0
-57 -349 350 0
-58 -350 351 0
-59 -351 352 0
-60 -352 0
61 353 0
-353 354 0
62 -353 355 0
-355 356 0
63 -355 357 0
-357 358 0
64 -357 0
62 354 0
-354 359 0
63 -354 356 0
-356 360 0
64 -356 358 0
-358 361 0
65 -358 0
63 359 0
-359 362 0
64 -359 360 0
-360 363 0
65 -360 361 0
-361 364 0
66 -361 0
64 362 0
-362 365 0
65 -362 363 0
-363 366 0
66 -363 364 0
-364 367 0
67 -364 0
65 365 0
-365 368 0
66 -365 366 0
-366 369 0
67 -366 367 0
-367 370 0
68 -367 0
66 368 0
-368 371 0
67 -368 369 0
-369 372 0
68 -369 370 0
-370 373 0
69 -370 0
67 371 0
68 -371 372 0
69 -372 373 0
70 -373 0
-61 374 0
-374 375 0
-62 -374 376 0
-376 377 0
-63 -376 378 0
-378 379 0
-64 -378 380 0
-380 381 0
-65 -380 382 0
-382 383 0
-66 -382 384 0
-384 385 0
-67 -384 386 0
-386 387 0
-68 -386 0
-62 375 0
-375 388 0
-63 -375 377 0
-377 389 0
-64 -377 379 0
-379 390 0
-65 -379 381 0
-381 391 0
-66 -381 383 0
-383 392 0
-67 -383 385 0
-385 393 0
-68 -385 387 0
-387 394 0
-69 -387 0
-63 388 0
-64 -388 389 0
-65 -389 390 0
-66 -390 391 0
-67 -391 392 0
-68 -392 393 0
-69 -393 394 0
-70 -394 0
71 395 0
-395 396 0
72 -395 397 0
-397 398 0
73 -397 0
72 396 0
-396 399 0
73 -396 398 0
-398 400 0
74 -398 0
73 399 0
-399 401 0
74 -399 400 0
-400 402 0
75 -400 0
74 401 0
-401 403 0
75 -401 402 0
-402 404 0
76 -402 0
75 403 0
-403 405 0
76 -403 404 0
-404 406 0
77 -404 0
76 405 0
-405 407 0
77 -405 406 0
-406 408 0
78 -406 0
77 407 0
-407 409 0
78 -407 408 0
-408 410 0
79 -408 0
78 409 0
79 -409 410 0
80 -410 0
-71 411 0
-411 412 0
-72 -411 413 0
-413 414 0
-73 -413 415 0
-415 416 0
-74 -415 417 0
-417 418 0
-75 -417 419 0
-419 420 0
-76 -419 421 0
-421 422 0
-77 -421 423 0
-423 424 0
-78 -423 425 0
-425 426 0
-79 -425 0
-72 412 0
-73 -412 414 0
-74 -414 416 0
-75 -416 418 0
-76 -418 420 0
-77 -420 422 0
-78 -422 424 0
-79 -424 426 0
-80 -426 0
81 427 0
-427 428 0
82 -427 429 0
-429 430 0
83 -429 0
82 428 0
-428 431 0
83 -428 430 0
-430 432 0
84 -430 0
83 431 0
-431 433 0
84 -431 432 0
-432 434 0
85 -432 0
84 433 0
-433 435 0
85 -433 434 0
-434 436 0
86 -434 0
85 435 0
-435 437 0
86 -435 436 0
-436 438 0
87 -436 0
86 437 0
-437 439 0
87 -437 438 0
-438 440 0
88 -438 0
87 439 0
-439 441 0
88 -439 440 0
-440 442 0
89 -440 0
88 441 0
89 -441 442 0
90 -442 0
-81 443 0
-443 444 0
-82 -443 445 0
-445 446 0
-83 -445 447 0
-447 448 0
-84 -447 449 0
-449 450 0
-85 -449 451 0
-451 452 0
-86 -451 453 0
-453 454 0
-87 -453 455 0
-455 456 0
-88 -455 457 0
-457 458 0
-89 -457 0
-82 444 0
-83 -444 446 0
-84 -446 448 0
-85 -448 450 0
-86 -450 452 0
-87 -452 454 0
-88 -454 456 0
-89 -456 458 0
-90 -458 0
91 459 0
-459 460 0
92 -459 461 0
-461 462 0
93 -461 463 0
-463 464 0
94 -463 465 0
-465 466 0
95 -465 0
92 460 0
-460 467 0
93 -460 462 0
-462 468 0
94 -462 464 0
-464 469 0
95 -464 466 0
-466 470 0
96 -466 0
93 467 0
-467 471 0
94 -467 468 0
-468 472 0
95 -468 469 0
-469 473 0
96 -469 470 0
-470 474 0
97 -470 0
94 471 0
-471 475 0
95 -471 472 0
-472 476 0
96 -472 473 0
-473 477 0
97 -473 474 0
-474 478 0
98 -474 0
95 475 0
-475 479 0
96 -475 476 0
-476 480 0
97 -476 477 0
-477 481 0
98 -477 478 0
-478 482 0
99 -478 0
96 479 0
97 -479 480 0
98 -480 481 0
99 -481 482 0
100 -482 0
-91 483 0
-483 484 0
-92 -483 485 0
-485 486 0
-93 -485 487 0
-487 488 0
-94 -487 489 0
-489 490 0
-95 -489 491 0
-491 492 0
-96 -491 493 0
-493 494 0
-97 -493 0
-92 484 0
-484 495 0
-93 -484 486 0
-486 496 0
-94 -486 488 0
-488 497 0
-95 -488 490 0
-490 498 0
-96 -490 492 0
-492 499 0
-97 -492 494 0
-494 500 0
-98 -494 0
-93 495 0
-495 501 0
-94 -495 496 0
-496 502 0
-95 -496 497 0
-497 503 0
-96 -497 498 0
-498 504 0
-97 -498 499 0
-499 505 0
-98 -499 500 0
-500 506 0
-99 -500 0
-94 501 0
-95 -501 502 0
-96 -502 503 0
-97 -503 504 0
-98 -504 505 0
-99 -505 506 0
-100 -506 0
1 507 0
-507 508 0
11 -507 509 0
-509 510 0
21 -509 511 0
-511 512 0
31 -511 0
11 508 0
-508 513 0
21 -508 510 0
-510 514 0
31 -510 512 0
-512 515 0
41 -512 0
21 513 0
-513 516 0
31 -513 514 0
-514 517 0
41 -514 515 0
-515 518 0
51 -515 0
31 516 0
-516 519 0
41 -516 517 0
-517 520 0
51 -517 518 0
-518 521 0
61 -518 0
41 519 0
-519 522 0
51 -519 520 0
-520 523 0
61 -520 521 0
-521 524 0
71 -521 0
51 522 0
-522 525 0
61 -522 523 0
-523 526 0
71 -523 524 0
-524 527 0
81 -524 0
61 525 0
71 -525 526 0
81 -526 527 0
91 -527 0
-1 528 0
-528 529 0
-11 -528 530 0
-530 531 0
-21 -530 532 0
-532 533 0
-31 -532 534 0
-534 535 0
-41 -534 536 0
-536 537 0
-51 -536 538 0
-538 539 0
-61 -538 540 0
-540 541 0
-71 -540 0
-11 529 0
-529 542 0
-21 -529 531 0
-531 543 0
-31 -531 533 0
-533 544 0
-41 -533 535 0
-535 545 0
-51 -535 537 0
-537 546 0
-61 -537 539 0
-539 547 0
-71 -539 541 0
-541 548 0
-81 -541 0
-21 542 0
-31 -542 543 0
-41 -543 544 0
-51 -544 545 0
-61 -545 546 0
-71 -546 547 0
-81 -547 548 0
-91 -548 0
2 549 0
-549 550 0
12 -549 551 0
-551 552 0
22 -551 553 0
-553 554 0
32 -553 0
12 550 0
-550 555 0
22 -550 552 0
-552 556 0
32 -552 554 0
-554 557 0
42 -554 0
22 555 0
-555 558 0
32 -555 556 0
-556 559 0
42 -556 557 0
-557 560 0
52 -557 0
32 558 0
-558 561 0
42 -558 559 0
-559 562 0
52 -559 560 0
-560 563 0
62 -560 0
42 561 0
-561 564 0
52 -561 562 0
-562 565 0
62 -562 563 0
-563 566 0
72 -563 0
52 564 0
-564 567 0
62 -564 565 0
-565 568 0
72 -565 566 0
-566 569 0
82 -566 0
62 567 0
72 -567 568 0
82 -568 569 0
92 -569 0
-2 570 0
-570 571 0
-12 -570 572 0
-572 573 0
-22 -572 574 0
-574 575 0
-32 -574 576 0
-576 577 0
-42 -576 578 0
-578 579 0
-52 -578 580 0
-580 581 0
-62 -580 582 0
-582 583 0
-72 -582 0
-12 571 0
-571 584 0
-22 -571 573 0
-573 585 0
-32 -573 575 0
-575 586 0
-42 -575 577 0
-577 587 0
-52 -577 579 0
-579 588 0
-62 -579 581 0
-581 589 0
-72 -581 583 0
-583 590 0
-82 -583 0
-22 584 0
-32 -584 585 0
-42 -585 586 0
-52 -586 587 0
-62 -587 588 0
-72 -588 589 0
-82 -589 590 0
-92 -590 0
3 591 0
-591 592 0
13 -591 0
13 592 0
-592 593 0
23 -592 0
23 593 0
-593 594 0
33 -593 0
33 594 0
-594 595 0
43 -594 0
43 595 0
-595 596 0
53 -595 0
53 596 0
-596 597 0
63 -596 0
63 597 0
-597 598 0
73 -597 0
73 598 0
-598 599 0
83 -598 0
83 599 0
93 -599 0
-3 -13 -23 -33 -43 -53 -63 -73 -83 -93 0
4 600 0
-600 601 0
14 -600 602 0
-602 603 0
24 -602 604 0
-604 605 0
34 -604 0
14 601 0
-601 606 0
24 -601 603 0
-603 607 0
34 -603 605 0
-605 608 0
44 -605 0
24 606 0
-606 609 0
34 -606 607 0
-607 610 0
44 -607 608 0
-608 611 0
54 -608 0
34 609 0
-609 612 0
44 -609 610 0
-610 613 0
54 -610 611 0
-611 614 0
64 -611 0
44 612 0
-612 615 0
54 -612 613 0
-613 616 0
64 -613 614 0
-614 617 0
74 -614 0
54 615 0
-615 618 0
64 -615 616 0
-616 619 0
74 -616 617 0
-617 620 0
84 -617 0
64 618 0
74 -618 619 0
84 -619 620 0
94 -620 0
-4 621 0
-621 622 0
-14 -621 623 0
-623 624 0
-24 -623 625 0
-625 626 0
-34 -625 627 0
-627 628 0
-44 -627 629 0
-629 630 0
-54 -629 631 0
-631 632 0
-64 -631 633 0
-633 634 0
-74 -633 0
-14 622 0
-622 635 0
-24 -622 624 0
-624 636 0
-34 -624 626 0
-626 637 0
-44 -626 628 0
-628 638 0
-54 -628 630 0
-630 639 0
-64 -630 632 0
-632 640 0
-74 -632 634 0
-634 641 0
-84 -634 0
-24 635 0
-34 -635 636 0
-44 -636 637 0
-54 -637 638 0
-64 -638 639 0
-74 -639 640 0
-84 -640 641 0
-94 -641 0
5 642 0
-642 643 0
15 -642 644 0
-644 645 0
25 -644 0
15 643 0
-643 646 0
25 -643 645 0
-645 647 0
35 -645 0
25 646 0
-646 648 0
35 -646 647 0
-647 649 0
45 -647 0
35 648 0
-648 650 0
45 -648 649 0
-649 651 0
55 -649 0
45 650 0
-650 652 0
55 -650 651 0
-651 653 0
65 -651 0
55 652 0
-652 654 0
65 -652 653 0
-653 655 0
75 -653 0
65 654 0
-654 656 0
75 -654 655 0
-655 657 0
85 -655 0
75 656 0
85 -656 657 0
95 -657 0
-5 658 0
-658 659 0
-15 -658 660 0
-660 661 0
-25 -660 662 0
-662 663 0
-35 -662 664 0
-664 665 0
-45 -664 666 0
-666 667 0
-55 -666 668 0
-668 669 0
-65 -668 670 0
-670 671 0
-75 -670 672 0
-672 673 0
-85 -672 0
-15 659 0
-25 -659 661 0
-35 -661 663 0
-45 -663 665 0
-55 -665 667 0
-65 -667 669 0
-75 -669 671 0
-85 -671 673 0
-95 -673 0
6 674 0
-674 675 0
16 -674 676 0
-676 677 0
26 -676 678 0
-678 679 0
36 -678 680 0
-680 681 0
46 -680 682 0
-682 683 0
56 -682 684 0
-684 685 0
66 -684 686 0
-686 687 0
76 -686 0
16 675 0
-675 688 0
26 -675 677 0
-677 689 0
36 -677 679 0
-679 690 0
46 -679 681 0
-681 691 0
56 -681 683 0
-683 692 0
66 -683 685 0
-685 693 0
76 -685 687 0
-687 694 0
86 -687 0
26 688 0
36 -688 689 0
46 -689 690 0
56 -690 691 0
66 -691 692 0
76 -692 693 0
86 -693 694 0
96 -694 0
-6 695 0
-695 696 0
-16 -695 697 0
-697 698 0
-26 -697 699 0
-699 700 0
-36 -699 0
-16 696 0
-696 701 0
-26 -696 698 0
-698 702 0
-36 -698 700 0
-700 703 0
-46 -700 0
-26 701 0
-701 704 0
-36 -701 702 0
-702 705 0
-46 -702 703 0
-703 706 0
-56 -703 0
-36 704 0
-704 707 0
-46 -704 705 0
-705 708 0
-56 -705 706 0
-706 709 0
-66 -706 0
-46 707 0
-707 710 0
-56 -707 708 0
-708 711 0
-66 -708 709 0
-709 712 0
-76 -709 0
-56 710 0
-710 713 0
-66 -710 711 0
-711 714 0
-76 -711 712 0
-712 715 0
-86 -712 0
-66 713 0
-76 -713 714 0
-86 -714 715 0
-96 -715 0
7 716 0
-716 717 0
17 -716 718 0
-718 719 0
27 -718 720 0
-720 721 0
37 -720 722 0
-722 723 0
47 -722 724 0
-724 725 0
57 -724 726 0
-726 727 0
67 -726 728 0
-728 729 0
77 -728 730 0
-730 731 0
87 -730 0
17 717 0
27 -717 719 0
37 -719 721 0
47 -721 723 0
57 -723 725 0
67 -725 727 0
77 -727 729 0
87 -729 731 0
97 -731 0
-7 732 0
-732 733 0
-17 -732 734 0
-734 735 0
-27 -734 0
-17 733 0
-733 736 0
-27 -733 735 0
-735 737 0
-37 -735 0
-27 736 0
-736 738 0
-37 -736 737 0
-737 739 0
-47 -737 0
-37 738 0
-738 740 0
-47 -738 739 0
-739 741 0
-57 -739 0
-47 740 0
-740 742 0
-57 -740 741 0
-741 743 0
-67 -741 0
-57 742 0
-742 744 0
-67 -742 743 0
-743 745 0
-77 -743 0
-67 744 0
-744 746 0
-77 -744 745 0
-745 747 0
-87 -745 0
-77 746 0
-87 -746 747 0
-97 -747 0
8 748 0
-748 749 0
18 -748 750 0
-750 751 0
28 -750 752 0
-752 753 0
38 -752 754 0
-754 755 0
48 -754 756 0
-756 757 0
58 -756 758 0
-758 759 0
68 -758 760 0
-760 761 0
78 -760 0
18 749 0
-749 762 0
28 -749 751 0
-751 763 0
38 -751 753 0
-753 764 0
48 -753 755 0
-755 765 0
58 -755 757 0
-757 766 0
68 -757 759 0
-759 767 0
78 -759 761 0
-761 768 0
88 -761 0
28 762 0
38 -762 763 0
48 -763 764 0
58 -764 765 0
68 -765 766 0
78 -766 767 0
88 -767 768 0
98 -768 0
-8 769 0
-769 770 0
-18 -769 771 0
-771 772 0
-28 -771 773 0
-773 774 0
-38 -773 0
-18 770 0
-770 775 0
-28 -770 772 0
-772 776 0
-38 -772 774 0
-774 777 0
-48 -774 0
-28 775 0
-775 778 0
-38 -775 776 0
-776 779 0
-48 -776 777 0
-777 780 0
-58 -777 0
-38 778 0
-778 781 0
-48 -778 779 0
-779 782 0
-58 -779 780 0
-780 783 0
-68 -780 0
-48 781 0
-781 784 0
-58 -781 782 0
-782 785 0
-68 -782 783 0
-783 786 0
-78 -783 0
-58 784 0
-784 787 0
-68 -784 785 0
-785 788 0
-78 -785 786 0
-786 789 0
-88 -786 0
-68 787 0
-78 -787 788 0
-88 -788 789 0
-98 -789 0
9 790 0
-790 791 0
19 -790 792 0
-792 793 0
29 -792 794 0
-794 795 0
39 -794 796 0
-796 797 0
49 -796 798 0
-798 799 0
59 -798 800 0
-800 801 0
69 -800 802 0
-802 803 0
79 -802 0
19 791 0
-791 804 0
29 -791 793 0
-793 805 0
39 -793 795 0
-795 806 0
49 -795 797 0
-797 807 0
59 -797 799 0
-799 808 0
69 -799 801 0
-801 809 0
79 -801 803 0
-803 810 0
89 -803 0
29 804 0
39 -804 805 0
49 -805 806 0
59 -806 807 0
69 -807 808 0
79 -808 809 0
89 -809 810 0
99 -810 0
-9 811 0
-811 812 0
-19 -811 813 0
-813 814 0
-29 -813 815 0
-815 816 0
-39 -815 0
-19 812 0
-812 817 0
-29 -812 814 0
-814 818 0
-39 -814 816 0
-816 819 0
-49 -816 0
-29 817 0
-817 820 0
-39 -817 818 0
-818 821 0
-49 -818 819 0
-819 822 0
-59 -819 0
-39 820 0
-820 823 0
-49 -820 821 0
-821 824 0
-59 -821 822 0
-822 825 0
-69 -822 0
-49 823 0
-823 826 0
-59 -823 824 0
-824 827 0
-69 -824 825 0
-825 828 0
-79 -825 0
-59 826 0
-826 829 0
-69 -826 827 0
-827 830 0
-79 -827 828 0
-828 831 0
-89 -828 0
-69 829 0
-79 -829 830 0
-89 -830 831 0
-99 -831 0
10 832 0
-832 833 0
20 -832 834 0
-834 835 0
30 -834 836 0
-836 837 0
40 -836 838 0
-838 839 0
50 -838 840 0
-840 841 0
60 -840 842 0
-842 843 0
70 -842 0
20 833 0
-833 844 0
30 -833 835 0
-835 845 0
40 -835 837 0
-837 846 0
50 -837 839 0
-839 847 0
60 -839 841 0
-841 848 0
70 -841 843 0
-843 849 0
80 -843 0
30 844 0
-844 850 0
40 -844 845 0
-845 851 0
50 -845 846 0
-846 852 0
60 -846 847 0
-847 853 0
70 -847 848 0
-848 854 0
80 -848 849 0
-849 855 0
90 -849 0
40 850 0
50 -850 851 0
60 -851 852 0
70 -852 853 0
80 -853 854 0
90 -854 855 0
100 -855 0
-10 856 0
-856 857 0
-20 -856 858 0
-858 859 0
-30 -858 860 0
-860 861 0
-40 -860 862 0
-862 863 0
-50 -862 0
-20 857 0
-857 864 0
-30 -857 859 0
-859 865 0
-40 -859 861 0
-861 866 0
-50 -861 863 0
-863 867 0
-60 -863 0
-30 864 0
-864 868 0
-40 -864 865 0
-865 869 0
-50 -865 866 0
-866 870 0
-60 -866 867 0
-867 871 0
-70 -867 0
-40 868 0
-868 872 0
-50 -868 869 0
-869 873 0
-60 -869 870 0
-870 874 0
-70 -870 871 0
-871 875 0
-80 -871 0
-50 872 0
-872 876 0
-60 -872 873 0
-873 877 0
-70 -873 874 0
-874 878 0
-80 -874 875 0
-875 879 0
-90 -875 0
-60 876 0
-70 -876 877 0
-80 -877 878 0
-90 -878 879 0
-100 -879 0
