p cnf 192 332
c t pmc
c p show 1 2 3 4 5 6 7 8 9 10 11 12 13 14 15 16 17 18 19 20 21 22 23 24 25 26 27 28 29 30 31 32 33 34 35 36 0
1 37 0
-37 38 0
2 -37 39 0
-39 40 0
3 -39 41 0
-41 42 0
4 -41 0
2 38 0
-38 43 0
3 -38 40 0
-40 44 0
4 -40 42 0
-42 45 0
5 -42 0
3 43 0
4 -43 44 0
5 -44 45 0
6 -45 0
-1 46 0
-46 47 0
-2 -46 48 0
-48 49 0
-3 -48 50 0
-50 51 0
-4 -50 0
-2 47 0
-47 52 0
-3 -47 49 0
-49 53 0
-4 -49 51 0
-51 54 0
-5 -51 0
-3 52 0
-4 -52 53 0
-5 -53 54 0
-6 -54 0
7 55 0
-55 56 0
8 -55 57 0
-57 58 0
9 -57 0
8 56 0
-56 59 0
9 -56 58 0
-58 60 0
10 -58 0
9 59 0
-59 61 0
10 -59 60 0
-60 62 0
11 -60 0
10 61 0
11 -61 62 0
12 -62 0
-7 63 0
-63 64 0
-8 -63 65 0
-65 66 0
-9 -65 67 0
-67 68 0
-10 -67 69 0
-69 70 0
-11 -69 0
-8 64 0
-9 -64 66 0
-10 -66 68 0
-11 -68 70 0
-12 -70 0
13 71 0
-71 72 0
14 -71 73 0
-73 74 0
15 -73 75 0
-75 76 0
16 -75 0
14 72 0
-72 77 0
15 -72 74 0
-74 78 0
16 -74 76 0
-76 79 0
17 -76 0
15 77 0
16 -77 78 0
17 -78 79 0
18 -79 0
-13 80 0
-80 81 0
-14 -80 82 0
-82 83 0
-15 -82 84 0
-84 85 0
-16 -84 0
-14 81 0
-81 86 0
-15 -81 83 0
-83 87 0
-16 -83 85 0
-85 88 0
-17 -85 0
-15 86 0
-16 -86 87 0
-17 -87 88 0
-18 -88 0
19 89 0
-89 90 0
20 -89 91 0
-91 92 0
21 -91 93 0
-93 94 0
22 -93 0
20 90 0
-90 95 0
21 -90 92 0
-92 96 0
22 -92 94 0
-94 97 0
23 -94 0
21 95 0
22 -95 96 0
23 -96 97 0
24 -97 0
-19 98 0
-98 99 0
-20 -98 100 0
-100 101 0
-21 -100 102 0
-102 103 0
-22 -102 0
-20 99 0
-99 104 0
-21 -99 101 0
-101 105 0
-22 -101 103 0
-103 106 0
-23 -103 0
-21 104 0
-22 -104 105 0
-23 -105 106 0
-24 -106 0
25 107 0
-107 108 0
26 -107 109 0
-109 110 0
27 -109 0
26 108 0
-108 111 0
27 -108 110 0
-110 112 0
28 -110 0
27 111 0
-111 113 0
28 -111 112 0
-112 114 0
29 -112 0
28 113 0
29 -113 114 0
30 -114 0
-25 115 0
-115 116 0
-26 -115 117 0
-117 118 0
-27 -117 119 0
-119 120 0
-28 -119 121 0
-121 122 0
-29 -121 0
-26 116 0
-27 -116 118 0
-28 -118 120 0
-29 -120 122 0
-30 -122 0
31 32 33 34 35 36 0
-31 123 0
-123 124 0
-32 -123 0
-32 124 0
-124 125 0
-33 -124 0
-33 125 0
-125 126 0
-34 -125 0
-34 126 0
-126 127 0
-35 -126 0
-35 127 0
-36 -127 0
1 7 13 19 25 31 0
-1 128 0
-128 129 0
-7 -128 0
-7 129 0
-129 130 0
-13 -129 0
-13 130 0
-130 131 0
-19 -130 0
-19 131 0
-131 132 0
-25 -131 0
-25 132 0
-31 -132 0
2 133 0
-133 134 0
8 -133 0
8 134 0
-134 135 0
14 -134 0
14 135 0
-135 136 0
20 -135 0
20 136 0
-136 137 0
26 -136 0
26 137 0
32 -137 0
-2 -8 -14 -20 -26 -32 0
3 138 0
-138 139 0
9 -138 140 0
-140 141 0
15 -140 142 0
-142 143 0
21 -142 144 0
-144 145 0
27 -144 0
9 139 0
15 -139 141 0
21 -141 143 0
27 -143 145 0
33 -145 0
-3 146 0
-146 147 0
-9 -146 148 0
-148 149 0
-15 -148 0
-9 147 0
-147 150 0
-15 -147 149 0
-149 151 0
-21 -149 0
-15 150 0
-150 152 0
-21 -150 151 0
-151 153 0
-27 -151 0
-21 152 0
-27 -152 153 0
-33 -153 0
4 154 0
-154 155 0
10 -154 0
10 155 0
-155 156 0
16 -155 0
16 156 0
-156 157 0
22 -156 0
22 157 0
-157 158 0
28 -157 0
28 158 0
34 -158 0
-4 -10 -16 -22 -28 -34 0
5 159 0
-159 160 0
11 -159 161 0
-161 162 0
17 -161 163 0
-163 164 0
23 -163 0
11 160 0
-160 165 0
17 -160 162 0
-162 166 0
23 -162 164 0
-164 167 0
29 -164 0
17 165 0
23 -165 166 0
29 -166 167 0
35 -167 0
-5 168 0
-168 169 0
-11 -168 170 0
-170 171 0
-17 -170 172 0
-172 173 0
-23 -172 0
-11 169 0
-169 174 0
-17 -169 171 0
-171 175 0
-23 -171 173 0
-173 176 0
-29 -173 0
-17 174 0
-23 -174 175 0
-29 -175 176 0
-35 -176 0
6 177 0
-177 178 0
12 -177 179 0
-179 180 0
18 -179 181 0
-181 182 0
24 -181 183 0
-183 184 0
30 -183 0
12 178 0
18 -178 180 0
24 -180 182 0
30 -182 184 0
36 -184 0
-6 185 0
-185 186 0
-12 -185 187 0
-187 188 0
-18 -187 0
-12 186 0
-186 189 0
-18 -186 188 0
-188 190 0
-24 -188 0
-18 189 0
-189 191 0
-24 -189 190 0
-190 192 0
-30 -190 0
-24 191 0
-30 -191 192 0
-36 -192 0
